c leafs=52, vars=13, seed=1, tickle=1, pretickle_path=1
p cnf 611 1639                                                                
e 14 15 16 17 18 19 20 21 22 23 24 25 26 27 28 29 30 31 32 33 34 35 36 37 38 39 40 41 42 43 44 45 46 47 48 49 50 51 52 53 54 55 56 57 58 59 60 61 62 63 64 65  0
a 1 2 3 4 5 6 7 8 9 10 11 12 13  0
e 66 67 68 69 70 71 72 73 74 75 76 77 78 79 80 81 82 83 84 85 86 87 88 89 90 91 92 93 94 95 96 97 98 99 100 101 102 103 104 105 106 107 108 109 110 111 112 113 114 115 116 117 118 119 120 121 122 123 124 125 126 127 128 129 130 131 132 133 134 135 136 137 138 139 140 141 142 143 144 145 146 147 148 149 150 151 152 153 154 155 156 157 158 159 160 161 162 163 164 165 166 167 168 169 170 171 172 173 174 175 176 177 178 179 180 181 182 183 184 185 186 187 188 189 190 191 192 193 194 195 196 197 198 199 200 201 202 203 204 205 206 207 208 209 210 211 212 213 214 215 216 217 218 219 220 221 222 223 224 225 226 227 228 229 230 231 232 233 234 235 236 237 238 239 240 241 242 243 244 245 246 247 248 249 250 251 252 253 254 255 256 257 258 259 260 261 262 263 264 265 266 267 268 269 270 271 272 273 274 275 276 277 278 279 280 281 282 283 284 285 286 287 288 289 290 291 292 293 294 295 296 297 298 299 300 301 302 303 304 305 306 307 308 309 310 311 312 313 314 315 316 317 318 319 320 321 322 323 324 325 326 327 328 329 330 331 332 333 334 335 336 337 338 339 340 341 342 343 344 345 346 347 348 349 350 351 352 353 354 355 356 357 358 359 360 361 362 363 364 365 366 367 368 369 370 371 372 373 374 375 376 377 378 379 380 381 382 383 384 385 386 387 388 389 390 391 392 393 394 395 396 397 398 399 400 401 402 403 404 405 406 407 408 409 410 411 412 413 414 415 416 417 418 419 420 421 422 423 424 425 426 427 428 429 430 431 432 433 434 435 436 437 438 439 440 441 442 443 444 445 446 447 448 449 450 451 452 453 454 455 456 457 458 459 460 461 462 463 464 465 466 467 468 469 470 471 472 473 474 475 476 477 478 479 480 481 482 483 484 485 486 487 488 489 490 491 492 493 494 495 496 497 498 499 500 501 502 503 504 505 506 507 508 509 510 511 512 513 514 515 516 517 518 519 520 521 522 523 524 525 526 527 528 529 530 531 532 533 534 535 536 537 538 539 540 541 542 543 544 545 546 547 548 549 550 551 552 553 554 555 556 557 558 559 560 561 562 563 564 565 566 567 568 569 570 571 572 573 574 575 576 577 578 579 580 581 582 583 584 585 586 587 588 589 590 591 592 593 594 595 596 597 598 599 600 601 602 603 604 605 606 607 608 609 610 611  0
611  0
-66 -20 3  0
66 20  0
66 -3  0
-67 5 20  0
67 -5  0
67 -20  0
-68 -11 21  0
68 11  0
68 -21  0
-69 -21 9  0
69 21  0
69 -9  0
70 9 -22  0
-70 -9  0
-70 22  0
71 22 1  0
-71 -22  0
-71 -1  0
72 -12 -24  0
-72 12  0
-72 24  0
73 24 5  0
-73 -24  0
-73 -5  0
74 -7 -23  0
-74 7  0
-74 23  0
75 23 5  0
-75 -23  0
-75 -5  0
-76 -5 26  0
76 5  0
76 -26  0
-77 -26 -13  0
77 26  0
77 13  0
-78 10 25  0
78 -10  0
78 -25  0
-79 -25 -6  0
79 25  0
79 6  0
80 19 -10  0
-80 -19  0
-80 10  0
81 3 -19  0
-81 -3  0
-81 19  0
-82 -5 17  0
82 5  0
82 -17  0
-83 -17 -4  0
83 17  0
83 4  0
-84 6 18  0
84 -6  0
84 -18  0
-85 -18 1  0
85 18  0
85 -1  0
-86 -15 -7  0
86 15  0
86 7  0
-87 5 15  0
87 -5  0
87 -15  0
-88 -14 -2  0
88 14  0
88 2  0
-89 11 14  0
89 -11  0
89 -14  0
90 16 -1  0
-90 -16  0
-90 1  0
91 -4 -16  0
-91 4  0
-91 16  0
-92 -31 -7  0
92 31  0
92 7  0
-93 -2 31  0
93 2  0
93 -31  0
-94 6 32  0
94 -6  0
94 -32  0
-95 -32 -7  0
95 32  0
95 7  0
96 -12 -30  0
-96 12  0
-96 30  0
97 30 5  0
-97 -30  0
-97 -5  0
98 27 -12  0
-98 -27  0
-98 12  0
99 -1 -27  0
-99 1  0
-99 27  0
100 -3 -28  0
-100 3  0
-100 28  0
101 28 8  0
-101 -28  0
-101 -8  0
102 29 2  0
-102 -29  0
-102 -2  0
103 13 -29  0
-103 -13  0
-103 29  0
-104 -36 8  0
104 36  0
104 -8  0
-105 -1 36  0
105 1  0
105 -36  0
-106 -37 10  0
106 37  0
106 -10  0
-107 7 37  0
107 -7  0
107 -37  0
108 3 -38  0
-108 -3  0
-108 38  0
109 38 6  0
-109 -38  0
-109 -6  0
110 7 -39  0
-110 -7  0
-110 39  0
111 39 9  0
-111 -39  0
-111 -9  0
112 7 -33  0
-112 -7  0
-112 33  0
113 33 11  0
-113 -33  0
-113 -11  0
114 5 -34  0
-114 -5  0
-114 34  0
115 34 -13  0
-115 -34  0
-115 13  0
-116 -35 2  0
116 35  0
116 -2  0
-117 -4 35  0
117 4  0
117 -35  0
-118 -45 1  0
118 45  0
118 -1  0
-119 10 45  0
119 -10  0
119 -45  0
-120 4 43  0
120 -4  0
120 -43  0
-121 -43 -7  0
121 43  0
121 7  0
-122 11 44  0
122 -11  0
122 -44  0
-123 -44 -13  0
123 44  0
123 13  0
-124 11 41  0
124 -11  0
124 -41  0
-125 -41 12  0
125 41  0
125 -12  0
-126 -3 42  0
126 3  0
126 -42  0
-127 -42 2  0
127 42  0
127 -2  0
-128 -2 40  0
128 2  0
128 -40  0
-129 -40 -4  0
129 40  0
129 4  0
-130 -51 -3  0
130 51  0
130 3  0
-131 -12 51  0
131 12  0
131 -51  0
-132 9 52  0
132 -9  0
132 -52  0
-133 -52 11  0
133 52  0
133 -11  0
-134 -50 2  0
134 50  0
134 -2  0
-135 -1 50  0
135 1  0
135 -50  0
-136 -49 7  0
136 49  0
136 -7  0
-137 5 49  0
137 -5  0
137 -49  0
-138 -48 -1  0
138 48  0
138 1  0
-139 -2 48  0
139 2  0
139 -48  0
-140 10 47  0
140 -10  0
140 -47  0
-141 -47 11  0
141 47  0
141 -11  0
-142 6 46  0
142 -6  0
142 -46  0
-143 -46 3  0
143 46  0
143 -3  0
-144 6 55  0
144 -6  0
144 -55  0
-145 -55 -10  0
145 55  0
145 10  0
-146 9 54  0
146 -9  0
146 -54  0
-147 -54 -13  0
147 54  0
147 13  0
-148 -7 53  0
148 7  0
148 -53  0
-149 -53 -11  0
149 53  0
149 11  0
-150 8 58  0
150 -8  0
150 -58  0
-151 -58 -4  0
151 58  0
151 4  0
152 3 -57  0
-152 -3  0
-152 57  0
153 57 -5  0
-153 -57  0
-153 5  0
154 -1 -56  0
-154 1  0
-154 56  0
155 56 -12  0
-155 -56  0
-155 12  0
156 59 6  0
-156 -59  0
-156 -6  0
157 -3 -59  0
-157 3  0
-157 59  0
-158 -61 -7  0
158 61  0
158 7  0
-159 11 61  0
159 -11  0
159 -61  0
-160 8 60  0
160 -8  0
160 -60  0
-161 -60 -2  0
161 60  0
161 2  0
162 4 -62  0
-162 -4  0
-162 62  0
163 62 -7  0
-163 -62  0
-163 7  0
164 63 -8  0
-164 -63  0
-164 8  0
165 5 -63  0
-165 -5  0
-165 63  0
-166 9 65  0
166 -9  0
166 -65  0
-167 -65 -2  0
167 65  0
167 2  0
-168 5 64  0
168 -5  0
168 -64  0
-169 -64 -10  0
169 64  0
169 10  0
-170 -6 -1  0
170 6  0
170 1  0
-171 -6 1  0
171 6  0
171 -1  0
-172 11 12  0
172 -11  0
172 -12  0
-173 -12 -11  0
173 12  0
173 11  0
174 -7 -13  0
-174 7  0
-174 13  0
175 13 7  0
-175 -13  0
-175 -7  0
-176 -11 -2  0
176 11  0
176 2  0
-177 2 11  0
177 -2  0
177 -11  0
-178 -7 -2  0
178 7  0
178 2  0
-179 2 7  0
179 -2  0
179 -7  0
-180 10 13  0
180 -10  0
180 -13  0
-181 -13 -10  0
181 13  0
181 10  0
-182 -7 12  0
182 7  0
182 -12  0
-183 -12 7  0
183 12  0
183 -7  0
-184 7 12  0
184 -7  0
184 -12  0
-185 -12 -7  0
185 12  0
185 7  0
186 -3 -9  0
-186 3  0
-186 9  0
187 9 3  0
-187 -9  0
-187 -3  0
-188 -9 3  0
188 9  0
188 -3  0
-189 -3 9  0
189 3  0
189 -9  0
190 -2 -6  0
-190 2  0
-190 6  0
191 6 2  0
-191 -6  0
-191 -2  0
192 13 -3  0
-192 -13  0
-192 3  0
193 3 -13  0
-193 -3  0
-193 13  0
194 13 3  0
-194 -13  0
-194 -3  0
195 -3 -13  0
-195 3  0
-195 13  0
196 1 -10  0
-196 -1  0
-196 10  0
197 10 -1  0
-197 -10  0
-197 1  0
-198 -10 -1  0
198 10  0
198 1  0
-199 1 10  0
199 -1  0
199 -10  0
-200 -10 9  0
200 10  0
200 -9  0
-201 -9 10  0
201 9  0
201 -10  0
202 11 -2  0
-202 -11  0
-202 2  0
203 2 -11  0
-203 -2  0
-203 11  0
-204 5 12  0
204 -5  0
204 -12  0
-205 -12 -5  0
205 12  0
205 5  0
-206 -13 10  0
206 13  0
206 -10  0
-207 -10 13  0
207 10  0
207 -13  0
208 13 -11  0
-208 -13  0
-208 11  0
209 -11 -13  0
-209 11  0
-209 13  0
210 -66 -67  0
-210 66  0
-210 67  0
211 -68 -69  0
-211 68  0
-211 69  0
-212 70 71  0
212 -70  0
212 -71  0
-213 72 73  0
213 -72  0
213 -73  0
-214 74 75  0
214 -74  0
214 -75  0
215 -76 -77  0
-215 76  0
-215 77  0
216 -78 -79  0
-216 78  0
-216 79  0
-217 80 81  0
217 -80  0
217 -81  0
218 -82 -83  0
-218 82  0
-218 83  0
219 -84 -85  0
-219 84  0
-219 85  0
220 -86 -87  0
-220 86  0
-220 87  0
221 -88 -89  0
-221 88  0
-221 89  0
-222 90 91  0
222 -90  0
222 -91  0
223 -92 -93  0
-223 92  0
-223 93  0
224 -94 -95  0
-224 94  0
-224 95  0
-225 96 97  0
225 -96  0
225 -97  0
-226 98 99  0
226 -98  0
226 -99  0
-227 100 101  0
227 -100  0
227 -101  0
-228 102 103  0
228 -102  0
228 -103  0
229 -104 -105  0
-229 104  0
-229 105  0
230 -106 -107  0
-230 106  0
-230 107  0
-231 108 109  0
231 -108  0
231 -109  0
-232 110 111  0
232 -110  0
232 -111  0
-233 112 113  0
233 -112  0
233 -113  0
-234 114 115  0
234 -114  0
234 -115  0
235 -116 -117  0
-235 116  0
-235 117  0
236 -118 -119  0
-236 118  0
-236 119  0
237 -120 -121  0
-237 120  0
-237 121  0
238 -122 -123  0
-238 122  0
-238 123  0
239 -124 -125  0
-239 124  0
-239 125  0
240 -126 -127  0
-240 126  0
-240 127  0
241 -128 -129  0
-241 128  0
-241 129  0
242 -130 -131  0
-242 130  0
-242 131  0
243 -132 -133  0
-243 132  0
-243 133  0
244 -134 -135  0
-244 134  0
-244 135  0
245 -136 -137  0
-245 136  0
-245 137  0
246 -138 -139  0
-246 138  0
-246 139  0
247 -140 -141  0
-247 140  0
-247 141  0
248 -142 -143  0
-248 142  0
-248 143  0
249 -144 -145  0
-249 144  0
-249 145  0
250 -146 -147  0
-250 146  0
-250 147  0
251 -148 -149  0
-251 148  0
-251 149  0
252 -150 -151  0
-252 150  0
-252 151  0
-253 152 153  0
253 -152  0
253 -153  0
-254 154 155  0
254 -154  0
254 -155  0
-255 156 157  0
255 -156  0
255 -157  0
256 -158 -159  0
-256 158  0
-256 159  0
257 -160 -161  0
-257 160  0
-257 161  0
-258 162 163  0
258 -162  0
258 -163  0
-259 164 165  0
259 -164  0
259 -165  0
260 -166 -167  0
-260 166  0
-260 167  0
261 -168 -169  0
-261 168  0
-261 169  0
-262 -10 170  0
262 10  0
262 -170  0
-263 10 171  0
263 -10  0
263 -171  0
264 -172 -173  0
-264 172  0
-264 173  0
-265 174 175  0
265 -174  0
265 -175  0
266 -176 -177  0
-266 176  0
-266 177  0
267 -178 -179  0
-267 178  0
-267 179  0
268 -180 -181  0
-268 180  0
-268 181  0
269 -182 -183  0
-269 182  0
-269 183  0
270 -184 -185  0
-270 184  0
-270 185  0
-271 186 187  0
271 -186  0
271 -187  0
272 -188 -189  0
-272 188  0
-272 189  0
-273 190 191  0
273 -190  0
273 -191  0
-274 192 193  0
274 -192  0
274 -193  0
-275 194 195  0
275 -194  0
275 -195  0
-276 196 197  0
276 -196  0
276 -197  0
277 -198 -199  0
-277 198  0
-277 199  0
278 -200 -201  0
-278 200  0
-278 201  0
-279 202 203  0
279 -202  0
279 -203  0
280 -204 -205  0
-280 204  0
-280 205  0
281 -206 -207  0
-281 206  0
-281 207  0
282 -10 -208  0
-282 10  0
-282 208  0
283 10 -209  0
-283 -10  0
-283 209  0
284 -210 -211  0
-284 210  0
-284 211  0
285 211 210  0
-285 -211  0
-285 -210  0
286 -213 -214  0
-286 213  0
-286 214  0
287 214 213  0
-287 -214  0
-287 -213  0
288 -215 -216  0
-288 215  0
-288 216  0
289 215 216  0
-289 -215  0
-289 -216  0
290 -218 -219  0
-290 218  0
-290 219  0
291 218 219  0
-291 -218  0
-291 -219  0
292 -220 -221  0
-292 220  0
-292 221  0
293 221 220  0
-293 -221  0
-293 -220  0
294 -223 -224  0
-294 223  0
-294 224  0
295 224 223  0
-295 -224  0
-295 -223  0
296 -227 -228  0
-296 227  0
-296 228  0
297 228 227  0
-297 -228  0
-297 -227  0
-298 229 230  0
298 -229  0
298 -230  0
-299 -229 -230  0
299 229  0
299 230  0
-300 231 232  0
300 -231  0
300 -232  0
-301 -232 -231  0
301 232  0
301 231  0
-302 233 234  0
302 -233  0
302 -234  0
-303 -234 -233  0
303 234  0
303 233  0
-304 237 238  0
304 -237  0
304 -238  0
-305 -237 -238  0
305 237  0
305 238  0
-306 239 240  0
306 -239  0
306 -240  0
-307 -240 -239  0
307 240  0
307 239  0
-308 242 243  0
308 -242  0
308 -243  0
-309 -243 -242  0
309 243  0
309 242  0
-310 244 245  0
310 -244  0
310 -245  0
-311 -244 -245  0
311 244  0
311 245  0
-312 246 247  0
312 -246  0
312 -247  0
-313 -246 -247  0
313 246  0
313 247  0
-314 249 250  0
314 -249  0
314 -250  0
-315 -249 -250  0
315 249  0
315 250  0
-316 253 254  0
316 -253  0
316 -254  0
-317 -254 -253  0
317 254  0
317 253  0
318 -256 -257  0
-318 256  0
-318 257  0
319 257 256  0
-319 -257  0
-319 -256  0
320 -258 -259  0
-320 258  0
-320 259  0
321 258 259  0
-321 -258  0
-321 -259  0
322 -260 -261  0
-322 260  0
-322 261  0
323 261 260  0
-323 -261  0
-323 -260  0
324 -262 -263  0
-324 262  0
-324 263  0
325 2 -264  0
-325 -2  0
-325 264  0
326 -2 -264  0
-326 2  0
-326 264  0
-327 -1 267  0
327 1  0
327 -267  0
-328 268 269  0
328 -268  0
328 -269  0
329 10 -270  0
-329 -10  0
-329 270  0
330 -10 -270  0
-330 10  0
-330 270  0
-331 -1 271  0
331 1  0
331 -271  0
-332 1 271  0
332 -1  0
332 -271  0
-333 1 272  0
333 -1  0
333 -272  0
-334 -1 272  0
334 1  0
334 -272  0
335 -5 -273  0
-335 5  0
-335 273  0
-336 1 274  0
336 -1  0
336 -274  0
337 4 -265  0
-337 -4  0
-337 265  0
338 1 -275  0
-338 -1  0
-338 275  0
-339 8 278  0
339 -8  0
339 -278  0
-340 -8 278  0
340 8  0
340 -278  0
341 -8 -280  0
-341 8  0
-341 280  0
-342 282 283  0
342 -282  0
342 -283  0
-343 -11 -268  0
343 11  0
343 268  0
-344 284 285  0
344 -284  0
344 -285  0
-345 286 287  0
345 -286  0
345 -287  0
-346 288 289  0
346 -288  0
346 -289  0
-347 290 291  0
347 -290  0
347 -291  0
-348 292 293  0
348 -292  0
348 -293  0
-349 294 295  0
349 -294  0
349 -295  0
-350 296 297  0
350 -296  0
350 -297  0
351 -298 -299  0
-351 298  0
-351 299  0
352 -300 -301  0
-352 300  0
-352 301  0
353 -302 -303  0
-353 302  0
-353 303  0
354 -304 -305  0
-354 304  0
-354 305  0
355 -306 -307  0
-355 306  0
-355 307  0
356 -308 -309  0
-356 308  0
-356 309  0
357 -310 -311  0
-357 310  0
-357 311  0
358 -312 -313  0
-358 312  0
-358 313  0
359 -314 -315  0
-359 314  0
-359 315  0
360 -316 -317  0
-360 316  0
-360 317  0
-361 318 319  0
361 -318  0
361 -319  0
-362 320 321  0
362 -320  0
362 -321  0
-363 322 323  0
363 -322  0
363 -323  0
-364 5 325  0
364 -5  0
364 -325  0
-365 -5 326  0
365 5  0
365 -326  0
-366 1 328  0
366 -1  0
366 -328  0
-367 13 329  0
367 -13  0
367 -329  0
-368 -13 330  0
368 13  0
368 -330  0
-369 5 328  0
369 -5  0
369 -328  0
-370 -5 328  0
370 5  0
370 -328  0
371 -10 -331  0
-371 10  0
-371 331  0
372 10 -332  0
-372 -10  0
-372 332  0
-373 10 333  0
373 -10  0
373 -333  0
-374 -10 334  0
374 10  0
374 -334  0
-375 335 336  0
375 -335  0
375 -336  0
-376 -336 -335  0
376 336  0
376 335  0
-377 335 338  0
377 -335  0
377 -338  0
-378 -338 -335  0
378 338  0
378 335  0
-379 7 339  0
379 -7  0
379 -339  0
-380 -7 340  0
380 7  0
380 -340  0
381 8 -342  0
-381 -8  0
-381 342  0
382 -5 -342  0
-382 5  0
-382 342  0
383 5 -343  0
-383 -5  0
-383 343  0
384 -5 -343  0
-384 5  0
-384 343  0
385 5 -342  0
-385 -5  0
-385 342  0
-386 344 212  0
386 -344  0
386 -212  0
-387 345 346  0
387 -345  0
387 -346  0
388 -217 -347  0
-388 217  0
-388 347  0
389 -348 -222  0
-389 348  0
-389 222  0
-390 349 225  0
390 -349  0
390 -225  0
-391 226 350  0
391 -226  0
391 -350  0
392 -351 -352  0
-392 351  0
-392 352  0
393 -353 -235  0
-393 353  0
-393 235  0
394 -236 -354  0
-394 236  0
-394 354  0
-395 355 241  0
395 -355  0
395 -241  0
-396 356 357  0
396 -356  0
396 -357  0
397 -358 -248  0
-397 358  0
-397 248  0
-398 359 251  0
398 -359  0
398 -251  0
399 -252 -360  0
-399 252  0
-399 360  0
400 -255 -361  0
-400 255  0
-400 361  0
401 -362 -363  0
-401 362  0
-401 363  0
402 -364 -365  0
-402 364  0
-402 365  0
403 -367 -368  0
-403 367  0
-403 368  0
-404 371 372  0
404 -371  0
404 -372  0
405 -373 -374  0
-405 373  0
-405 374  0
406 -375 -376  0
-406 375  0
-406 376  0
407 -377 -378  0
-407 377  0
-407 378  0
408 -379 -380  0
-408 379  0
-408 380  0
-409 382 383  0
409 -382  0
409 -383  0
-410 384 385  0
410 -384  0
410 -385  0
-411 386 387  0
411 -386  0
411 -387  0
-412 -386 -387  0
412 386  0
412 387  0
-413 388 389  0
413 -388  0
413 -389  0
-414 -388 -389  0
414 388  0
414 389  0
-415 390 391  0
415 -390  0
415 -391  0
-416 -391 -390  0
416 391  0
416 390  0
-417 392 393  0
417 -392  0
417 -393  0
-418 -393 -392  0
418 393  0
418 392  0
-419 394 395  0
419 -394  0
419 -395  0
-420 -394 -395  0
420 394  0
420 395  0
-421 396 397  0
421 -396  0
421 -397  0
-422 -397 -396  0
422 397  0
422 396  0
-423 398 399  0
423 -398  0
423 -399  0
-424 -398 -399  0
424 398  0
424 399  0
-425 400 401  0
425 -400  0
425 -401  0
-426 -401 -400  0
426 401  0
426 400  0
427 -324 -402  0
-427 324  0
-427 402  0
428 402 324  0
-428 -402  0
-428 -324  0
-429 -1 403  0
429 1  0
429 -403  0
-430 -13 404  0
430 13  0
430 -404  0
-431 13 -404  0
431 -13  0
431 404  0
-432 -4 405  0
432 4  0
432 -405  0
-433 -9 407  0
433 9  0
433 -407  0
-434 9 407  0
434 -9  0
434 -407  0
-435 -276 407  0
435 276  0
435 -407  0
436 -12 -409  0
-436 12  0
-436 409  0
437 12 -410  0
-437 -12  0
-437 410  0
-438 -276 406  0
438 276  0
438 -406  0
439 -9 -406  0
-439 9  0
-439 406  0
440 9 -406  0
-440 -9  0
-440 406  0
-441 -4 -404  0
441 4  0
441 404  0
442 -411 -412  0
-442 411  0
-442 412  0
443 -413 -414  0
-443 413  0
-443 414  0
444 -415 -416  0
-444 415  0
-444 416  0
445 -417 -418  0
-445 417  0
-445 418  0
446 -419 -420  0
-446 419  0
-446 420  0
447 -421 -422  0
-447 421  0
-447 422  0
448 -423 -424  0
-448 423  0
-448 424  0
449 -425 -426  0
-449 425  0
-449 426  0
-450 427 428  0
450 -427  0
450 -428  0
451 -366 -429  0
-451 366  0
-451 429  0
452 -430 -431  0
-452 430  0
-452 431  0
-453 -3 433  0
453 3  0
453 -433  0
-454 3 434  0
454 -3  0
454 -434  0
-455 3 433  0
455 -3  0
455 -433  0
-456 -3 434  0
456 3  0
456 -434  0
-457 436 437  0
457 -436  0
457 -437  0
-458 -3 439  0
458 3  0
458 -439  0
-459 3 440  0
459 -3  0
459 -440  0
-460 3 439  0
460 -3  0
460 -439  0
-461 -3 440  0
461 3  0
461 -440  0
462 -442 -443  0
-462 442  0
-462 443  0
-463 444 445  0
463 -444  0
463 -445  0
464 -446 -447  0
-464 446  0
-464 447  0
-465 448 449  0
465 -448  0
465 -449  0
-466 -10 450  0
466 10  0
466 -450  0
467 13 -450  0
-467 -13  0
-467 450  0
-468 10 450  0
468 -10  0
468 -450  0
469 -13 -450  0
-469 13  0
-469 450  0
-470 -5 451  0
470 5  0
470 -451  0
-471 5 451  0
471 -5  0
471 -451  0
-472 7 452  0
472 -7  0
472 -452  0
-473 -7 -452  0
473 7  0
473 452  0
474 -453 -454  0
-474 453  0
-474 454  0
475 -455 -456  0
-475 455  0
-475 456  0
476 -8 -457  0
-476 8  0
-476 457  0
477 -458 -459  0
-477 458  0
-477 459  0
478 -460 -461  0
-478 460  0
-478 461  0
-479 7 -452  0
479 -7  0
479 452  0
-480 -7 452  0
480 7  0
480 -452  0
481 -462 -463  0
-481 462  0
-481 463  0
482 462 463  0
-482 -462  0
-482 -463  0
483 -464 -465  0
-483 464  0
-483 465  0
484 464 465  0
-484 -464  0
-484 -465  0
-485 466 265  0
485 -466  0
485 -265  0
486 -13 -468  0
-486 13  0
-486 468  0
487 13 -468  0
-487 -13  0
-487 468  0
488 -470 -369  0
-488 470  0
-488 369  0
489 -370 -471  0
-489 370  0
-489 471  0
490 -472 -473  0
-490 472  0
-490 473  0
-491 474 276  0
491 -474  0
491 -276  0
-492 277 475  0
492 -277  0
492 -475  0
-493 381 476  0
493 -381  0
493 -476  0
-494 276 477  0
494 -276  0
494 -477  0
495 276 -478  0
-495 -276  0
-495 478  0
496 -479 -480  0
-496 479  0
-496 480  0
-497 481 482  0
497 -481  0
497 -482  0
-498 483 484  0
498 -483  0
498 -484  0
499 -3 -485  0
-499 3  0
-499 485  0
-500 467 486  0
500 -467  0
500 -486  0
-501 469 487  0
501 -469  0
501 -487  0
502 3 -485  0
-502 -3  0
-502 485  0
-503 -11 488  0
503 11  0
503 -488  0
-504 11 489  0
504 -11  0
504 -489  0
-505 4 490  0
505 -4  0
505 -490  0
506 -491 -435  0
-506 491  0
-506 435  0
-507 492 -337  0
507 -492  0
507 337  0
508 -438 -494  0
-508 438  0
-508 494  0
-509 495 -337  0
509 -495  0
509 337  0
-510 4 496  0
510 -4  0
510 -496  0
-511 497 498  0
511 -497  0
511 -498  0
512 7 -500  0
-512 -7  0
-512 500  0
513 -7 -501  0
-513 7  0
-513 501  0
514 -503 -504  0
-514 503  0
-514 504  0
515 -505 -432  0
-515 505  0
-515 432  0
-516 337 506  0
516 -337  0
516 -506  0
-517 337 508  0
517 -337  0
517 -508  0
518 -510 -441  0
-518 510  0
-518 441  0
-519 512 513  0
519 -512  0
519 -513  0
-520 10 514  0
520 -10  0
520 -514  0
-521 6 514  0
521 -6  0
521 -514  0
-522 -6 514  0
522 6  0
522 -514  0
523 -515 -406  0
-523 515  0
-523 406  0
524 -516 -507  0
-524 516  0
-524 507  0
525 -517 -509  0
-525 517  0
-525 509  0
-526 518 407  0
526 -518  0
526 -407  0
527 3 -519  0
-527 -3  0
-527 519  0
528 -3 -519  0
-528 3  0
-528 519  0
529 4 -519  0
-529 -4  0
-529 519  0
-530 5 521  0
530 -5  0
530 -521  0
-531 -5 522  0
531 5  0
531 -522  0
-532 -5 521  0
532 5  0
532 -521  0
-533 5 522  0
533 -5  0
533 -522  0
-534 499 527  0
534 -499  0
534 -527  0
-535 528 502  0
535 -528  0
535 -502  0
536 -530 -531  0
-536 530  0
-536 531  0
537 -532 -533  0
-537 532  0
-537 533  0
538 11 -534  0
-538 -11  0
-538 534  0
539 -11 -535  0
-539 11  0
-539 535  0
-540 -10 536  0
540 10  0
540 -536  0
-541 -10 537  0
541 10  0
541 -537  0
-542 538 539  0
542 -538  0
542 -539  0
543 -520 -540  0
-543 520  0
-543 540  0
-544 -327 541  0
544 327  0
544 -541  0
545 -4 -542  0
-545 4  0
-545 542  0
-546 327 543  0
546 -327  0
546 -543  0
-547 545 529  0
547 -545  0
547 -529  0
548 -546 -544  0
-548 546  0
-548 544  0
-549 548 523  0
549 -548  0
549 -523  0
-550 -548 524  0
550 548  0
550 -524  0
-551 525 -548  0
551 -525  0
551 548  0
-552 526 548  0
552 -526  0
552 -548  0
553 -549 -550  0
-553 549  0
-553 550  0
554 -551 -552  0
-554 551  0
-554 552  0
555 6 -553  0
-555 -6  0
-555 553  0
-556 553 279  0
556 -553  0
556 -279  0
557 -6 -553  0
-557 6  0
-557 553  0
-558 553 493  0
558 -553  0
558 -493  0
-559 6 554  0
559 -6  0
559 -554  0
-560 -6 554  0
560 6  0
560 -554  0
-561 279 554  0
561 -279  0
561 -554  0
-562 554 493  0
562 -554  0
562 -493  0
563 -266 -555  0
-563 266  0
-563 555  0
-564 -279 557  0
564 279  0
564 -557  0
-565 559 -279  0
565 -559  0
565 279  0
-566 -279 560  0
566 279  0
566 -560  0
-567 563 408  0
567 -563  0
567 -408  0
568 -556 -564  0
-568 556  0
-568 564  0
-569 563 -408  0
569 -563  0
569 408  0
-570 565 408  0
570 -565  0
570 -408  0
571 -566 -561  0
-571 566  0
-571 561  0
-572 565 -408  0
572 -565  0
572 408  0
-573 568 -408  0
573 -568  0
573 408  0
-574 568 408  0
574 -568  0
574 -408  0
-575 571 -408  0
575 -571  0
575 408  0
-576 571 408  0
576 -571  0
576 -408  0
577 -567 -573  0
-577 567  0
-577 573  0
578 -574 -569  0
-578 574  0
-578 569  0
579 -570 -575  0
-579 570  0
-579 575  0
580 -572 -576  0
-580 572  0
-580 576  0
581 -11 -577  0
-581 11  0
-581 577  0
582 11 -577  0
-582 -11  0
-582 577  0
-583 -281 577  0
583 281  0
583 -577  0
-584 -493 578  0
584 493  0
584 -578  0
-585 -11 579  0
585 11  0
585 -579  0
-586 -281 579  0
586 281  0
586 -579  0
-587 11 579  0
587 -11  0
587 -579  0
-588 580 -493  0
588 -580  0
588 493  0
589 -581 -268  0
-589 581  0
-589 268  0
-590 281 582  0
590 -281  0
590 -582  0
591 -558 -584  0
-591 558  0
-591 584  0
-592 281 585  0
592 -281  0
592 -585  0
-593 587 281  0
593 -587  0
593 -281  0
594 -562 -588  0
-594 562  0
-594 588  0
-595 589 341  0
595 -589  0
595 -341  0
596 -590 -583  0
-596 590  0
-596 583  0
-597 591 -547  0
597 -591  0
597 547  0
-598 592 341  0
598 -592  0
598 -341  0
599 -586 -593  0
-599 586  0
-599 593  0
-600 594 -547  0
600 -594  0
600 547  0
-601 -341 596  0
601 341  0
601 -596  0
-602 -341 599  0
602 341  0
602 -599  0
603 -595 -601  0
-603 595  0
-603 601  0
604 -598 -602  0
-604 598  0
-604 602  0
-605 547 603  0
605 -547  0
605 -603  0
-606 604 547  0
606 -604  0
606 -547  0
607 -605 -597  0
-607 605  0
-607 597  0
608 -606 -600  0
-608 606  0
-608 600  0
-609 511 607  0
609 -511  0
609 -607  0
-610 -511 608  0
610 511  0
610 -608  0
611 -609 -610  0
-611 609  0
-611 610  0
